(set-logic HORN)
(declare-datatypes ((Bool_0 0)) (((false_0 ) (true_0 ))))
(declare-datatypes ((Nat_0 0)) (((Z_0 ) (S_0 (projS_0 Nat_0)))))
(declare-fun diseqNat_0 (Nat_0 Nat_0) Bool)
(declare-datatypes ((list_0 0)) (((nil_0 ) (cons_0 (head_0 Nat_0) (tail_0 list_0)))))
(declare-fun len_0 (Nat_0 list_0) Bool)
(declare-fun last_0 (Nat_0 list_0) Bool)
(declare-fun drop_0 (list_0 Nat_0 list_0) Bool)
(declare-fun x_7 (Bool_0 Nat_0 Nat_0) Bool)
(assert (forall ((x_37 Nat_0))
	(diseqNat_0 Z_0 (S_0 x_37))))
(assert (forall ((x_38 Nat_0))
	(diseqNat_0 (S_0 x_38) Z_0)))
(assert (forall ((x_39 Nat_0) (x_40 Nat_0))
	(=> (diseqNat_0 x_39 x_40) (diseqNat_0 (S_0 x_39) (S_0 x_40)))))
(assert (forall ((x_11 Nat_0) (y_0 Nat_0) (xs_0 list_0))
	(=> (len_0 x_11 xs_0) (len_0 (S_0 x_11) (cons_0 y_0 xs_0)))))
(assert (len_0 Z_0 nil_0))
(assert (forall ((x_13 Nat_0) (x_2 Nat_0) (x_3 list_0) (y_1 Nat_0))
	(=> (last_0 x_13 (cons_0 x_2 x_3)) (last_0 x_13 (cons_0 y_1 (cons_0 x_2 x_3))))))
(assert (forall ((x_15 Nat_0))
	(last_0 x_15 (cons_0 x_15 nil_0))))
(assert (last_0 Z_0 nil_0))
(assert (forall ((x_17 list_0) (x_5 Nat_0) (x_6 list_0) (z_2 Nat_0))
	(=> (drop_0 x_17 z_2 x_6) (drop_0 x_17 (S_0 z_2) (cons_0 x_5 x_6)))))
(assert (forall ((z_2 Nat_0))
	(drop_0 nil_0 (S_0 z_2) nil_0)))
(assert (forall ((x_20 list_0))
	(drop_0 x_20 Z_0 x_20)))
(assert (forall ((x_21 Bool_0) (x_9 Nat_0) (z_3 Nat_0))
	(=> (x_7 x_21 x_9 z_3) (x_7 x_21 (S_0 x_9) (S_0 z_3)))))
(assert (forall ((z_3 Nat_0))
	(x_7 true_0 Z_0 (S_0 z_3))))
(assert (forall ((x_8 Nat_0))
	(x_7 false_0 x_8 Z_0)))
(assert (forall ((x_28 Nat_0) (x_25 list_0) (x_26 Nat_0) (x_27 Nat_0) (n_0 Nat_0) (xs_1 list_0))
	(=> (and (diseqNat_0 x_26 x_27) (len_0 x_28 xs_1) (x_7 true_0 n_0 x_28) (drop_0 x_25 n_0 xs_1) (last_0 x_26 x_25) (last_0 x_27 xs_1)) false)))
(check-sat)
(get-model)
